Solver command line: ['C:\\Program Files\\IBM\\ILOG\\CPLEX_Studio2211\\cplex\\bin\\x64_win64\\cplex.exe']


Welcome to IBM(R) ILOG(R) CPLEX(R) Interactive Optimizer 22.1.1.0
  with Simplex, Mixed Integer & Barrier Optimizers
5725-A06 5725-A29 5724-Y48 5724-Y49 5724-Y54 5724-Y55 5655-Y21
Copyright IBM Corp. 1988, 2022.  All Rights Reserved.

Type 'help' for a list of available commands.
Type 'help' followed by a command name for more
information on commands.

CPLEX> Logfile 'cplex.log' closed.
Logfile 'C:\Users\wangy\Documents\GitHub\re_optimization\result_site_specific\tmpvzz4ag73.cplex.log' open.
CPLEX> Problem 'C:\Users\wangy\Documents\GitHub\re_optimization\result_site_specific\tmpavbah3x0.pyomo.lp' read.
Read time = 0.30 sec. (9.13 ticks)
CPLEX> Problem name         : C:\Users\wangy\Documents\GitHub\re_optimization\result_site_specific\tmpavbah3x0.pyomo.lp
Objective sense      : Minimize
Variables            :   65769  [Nneg: 35068,  Free: 8792,  Binary: 9,
                                 Other: 21900]
Objective nonzeros   :      17
Linear constraints   :   87665  [Less: 46741,  Greater: 5,  Equal: 40919]
  Nonzeros           :  225060
  RHS nonzeros       :    3651

Variables            : Min LB: 0.000000         Max UB: 1.000000       
Objective nonzeros   : Min   : 1.000000         Max   : 1.000000       
Linear constraints   :
  Nonzeros           : Min   : 0.001179108      Max   : 100000.0       
  RHS nonzeros       : Min   : 0.09500000       Max   : 100000.0       
CPLEX> Version identifier: 22.1.1.0 | 2022-11-27 | 9160aff4d
Tried aggregator 3 times.
MIP Presolve eliminated 53151 rows and 32708 columns.
Aggregator did 10688 substitutions.
Reduced MIP has 23826 rows, 22373 columns, and 71579 nonzeros.
Reduced MIP has 5 binaries, 0 generals, 0 SOSs, and 0 indicators.
Presolve time = 0.20 sec. (226.68 ticks)
Found incumbent of value 212512.229409 after 0.30 sec. (325.37 ticks)
Probing time = 0.00 sec. (1.24 ticks)
Tried aggregator 1 time.
Detecting symmetries...
Reduced MIP has 23826 rows, 22373 columns, and 71579 nonzeros.
Reduced MIP has 5 binaries, 0 generals, 0 SOSs, and 0 indicators.
Presolve time = 0.05 sec. (46.02 ticks)
Probing time = 0.00 sec. (1.15 ticks)
MIP emphasis: balance optimality and feasibility.
MIP search method: dynamic search.
Parallel mode: deterministic, using up to 16 threads.
Root relaxation solution time = 1.17 sec. (855.80 ticks)

        Nodes                                         Cuts/
   Node  Left     Objective  IInf  Best Integer    Best Bound    ItCnt     Gap

*     0+    0                       212512.2294    -6071.0139           102.86%
*     0+    0                         6379.0658    -6071.0139           195.17%
      0     0     5789.7154     1     6379.0658     5789.7154       64    9.24%
*     0+    0                         6379.0607     5789.7154             9.24%
      0     0        cutoff           6379.0607                    920    0.00%
Elapsed time = 1.89 sec. (1758.40 ticks, tree = 0.01 MB, solutions = 3)

Root node processing (before b&c):
  Real time             =    1.91 sec. (1761.57 ticks)
Parallel b&c, 16 threads:
  Real time             =    0.00 sec. (0.00 ticks)
  Sync time (average)   =    0.00 sec.
  Wait time (average)   =    0.00 sec.
                          ------------
Total (root+branch&cut) =    1.91 sec. (1761.57 ticks)

Solution pool: 3 solutions saved.

MIP - Integer optimal solution:  Objective =  6.3790606579e+03
Solution time =    1.91 sec.  Iterations = 920  Nodes = 0
Deterministic time = 1761.76 ticks  (924.32 ticks/sec)

CPLEX> Incumbent solution written to file 'C:\Users\wangy\Documents\GitHub\re_optimization\result_site_specific\tmpruk2dcnl.cplex.sol'.
CPLEX> 
